p cnf 554 1597
1 -2 0
2 -1 0
3 -4 0
4 -3 0
5 -6 0
6 -5 0
7 -8 0
8 -7 0
9 -10 0
10 -9 0
11 -12 0
12 -11 0
13 -14 0
14 -13 0
15 -16 0
16 -15 0
17 -18 0
18 -17 0
19 -20 0
20 -19 0
21 22 0
23 22 0
24 22 0
25 22 0
26 22 0
27 22 0
28 22 0
29 22 0
30 22 0
31 22 0
32 22 0
33 22 0
-34 0
-35 22 -36 0
35 -22 -36 0
36 -22 -35 0
35 22 36 0
-36 0
23 37 0
24 37 0
25 37 0
26 37 0
27 37 0
28 37 0
29 37 0
30 37 0
31 37 0
32 37 0
33 37 0
-38 0
37 -39 -40 0
39 -37 -40 0
40 -37 -39 0
39 37 40 0
-40 0
24 41 0
25 41 0
26 41 0
27 41 0
28 41 0
29 41 0
30 41 0
31 41 0
32 41 0
33 41 0
-42 0
41 -43 -44 0
43 -41 -44 0
44 -41 -43 0
43 41 44 0
-44 0
25 45 0
26 45 0
27 45 0
28 45 0
29 45 0
30 45 0
31 45 0
32 45 0
33 45 0
-46 0
45 -47 -48 0
47 -45 -48 0
48 -45 -47 0
47 45 48 0
-48 0
26 49 0
27 49 0
28 49 0
29 49 0
30 49 0
31 49 0
32 49 0
33 49 0
-50 0
49 -51 -52 0
51 -49 -52 0
52 -49 -51 0
51 49 52 0
-52 0
27 53 0
28 53 0
29 53 0
30 53 0
31 53 0
32 53 0
33 53 0
-54 0
53 -55 -56 0
55 -53 -56 0
56 -53 -55 0
55 53 56 0
-56 0
53 -57 -58 0
57 -53 -58 0
58 -53 -57 0
57 53 58 0
-58 0
53 -59 -60 0
59 -53 -60 0
60 -53 -59 0
59 53 60 0
-60 0
53 -61 -62 0
61 -53 -62 0
62 -53 -61 0
61 53 62 0
-62 0
53 -63 -64 0
63 -53 -64 0
64 -53 -63 0
63 53 64 0
-64 0
53 -65 -66 0
65 -53 -66 0
66 -53 -65 0
65 53 66 0
-66 0
53 -67 -68 0
67 -53 -68 0
68 -53 -67 0
67 53 68 0
-68 0
69 70 0
71 70 0
72 70 0
73 70 0
74 70 0
75 70 0
76 70 0
77 70 0
78 70 0
79 70 0
80 70 0
81 70 0
-82 0
-83 70 -84 0
83 -70 -84 0
84 -70 -83 0
83 70 84 0
-84 0
71 85 0
72 85 0
73 85 0
74 85 0
75 85 0
76 85 0
77 85 0
78 85 0
79 85 0
80 85 0
81 85 0
-86 0
85 -87 -88 0
87 -85 -88 0
88 -85 -87 0
87 85 88 0
-88 0
72 89 0
73 89 0
74 89 0
75 89 0
76 89 0
77 89 0
78 89 0
79 89 0
80 89 0
81 89 0
-90 0
89 -91 -92 0
91 -89 -92 0
92 -89 -91 0
91 89 92 0
-92 0
73 93 0
74 93 0
75 93 0
76 93 0
77 93 0
78 93 0
79 93 0
80 93 0
81 93 0
-94 0
93 -95 -96 0
95 -93 -96 0
96 -93 -95 0
95 93 96 0
-96 0
74 97 0
75 97 0
76 97 0
77 97 0
78 97 0
79 97 0
80 97 0
81 97 0
-98 0
97 -99 -100 0
99 -97 -100 0
100 -97 -99 0
99 97 100 0
-100 0
75 101 0
76 101 0
77 101 0
78 101 0
79 101 0
80 101 0
81 101 0
-102 0
101 -103 -104 0
103 -101 -104 0
104 -101 -103 0
103 101 104 0
-104 0
76 105 0
77 105 0
78 105 0
79 105 0
80 105 0
81 105 0
-106 0
105 -107 -108 0
107 -105 -108 0
108 -105 -107 0
107 105 108 0
-108 0
105 -109 -110 0
109 -105 -110 0
110 -105 -109 0
109 105 110 0
-110 0
105 -111 -112 0
111 -105 -112 0
112 -105 -111 0
111 105 112 0
-112 0
105 -113 -114 0
113 -105 -114 0
114 -105 -113 0
113 105 114 0
-114 0
105 -115 -116 0
115 -105 -116 0
116 -105 -115 0
115 105 116 0
-116 0
105 -117 -118 0
117 -105 -118 0
118 -105 -117 0
117 105 118 0
-118 0
119 120 0
121 120 0
122 120 0
123 120 0
124 120 0
125 120 0
126 120 0
127 120 0
128 120 0
129 120 0
130 120 0
131 120 0
-132 0
-133 120 -134 0
133 -120 -134 0
134 -120 -133 0
133 120 134 0
-134 0
121 135 0
122 135 0
123 135 0
124 135 0
125 135 0
126 135 0
127 135 0
128 135 0
129 135 0
130 135 0
131 135 0
-136 0
135 -137 -138 0
137 -135 -138 0
138 -135 -137 0
137 135 138 0
-138 0
122 139 0
123 139 0
124 139 0
125 139 0
126 139 0
127 139 0
128 139 0
129 139 0
130 139 0
131 139 0
-140 0
139 -141 -142 0
141 -139 -142 0
142 -139 -141 0
141 139 142 0
-142 0
123 143 0
124 143 0
125 143 0
126 143 0
127 143 0
128 143 0
129 143 0
130 143 0
131 143 0
-144 0
143 -145 -146 0
145 -143 -146 0
146 -143 -145 0
145 143 146 0
-146 0
124 147 0
125 147 0
126 147 0
127 147 0
128 147 0
129 147 0
130 147 0
131 147 0
-148 0
147 -149 -150 0
149 -147 -150 0
150 -147 -149 0
149 147 150 0
-150 0
147 -151 -152 0
151 -147 -152 0
152 -147 -151 0
151 147 152 0
-152 0
147 -153 -154 0
153 -147 -154 0
154 -147 -153 0
153 147 154 0
-154 0
147 -155 -156 0
155 -147 -156 0
156 -147 -155 0
155 147 156 0
-156 0
147 -157 -158 0
157 -147 -158 0
158 -147 -157 0
157 147 158 0
-158 0
147 -159 -160 0
159 -147 -160 0
160 -147 -159 0
159 147 160 0
-160 0
147 -161 -162 0
161 -147 -162 0
162 -147 -161 0
161 147 162 0
-162 0
147 -163 -164 0
163 -147 -164 0
164 -147 -163 0
163 147 164 0
-164 0
165 166 0
167 166 0
168 166 0
169 166 0
170 166 0
171 166 0
172 166 0
173 166 0
174 166 0
175 166 0
176 166 0
177 166 0
178 166 0
-179 0
-180 166 -181 0
180 -166 -181 0
181 -166 -180 0
180 166 181 0
-181 0
167 182 0
168 182 0
169 182 0
170 182 0
171 182 0
172 182 0
173 182 0
174 182 0
175 182 0
176 182 0
177 182 0
178 182 0
-183 0
182 -184 -185 0
184 -182 -185 0
185 -182 -184 0
184 182 185 0
-185 0
168 186 0
169 186 0
170 186 0
171 186 0
172 186 0
173 186 0
174 186 0
175 186 0
176 186 0
177 186 0
178 186 0
-187 0
186 -188 -189 0
188 -186 -189 0
189 -186 -188 0
188 186 189 0
-189 0
169 190 0
170 190 0
171 190 0
172 190 0
173 190 0
174 190 0
175 190 0
176 190 0
177 190 0
178 190 0
-191 0
190 -192 -193 0
192 -190 -193 0
193 -190 -192 0
192 190 193 0
-193 0
170 194 0
171 194 0
172 194 0
173 194 0
174 194 0
175 194 0
176 194 0
177 194 0
178 194 0
-195 0
194 -196 -197 0
196 -194 -197 0
197 -194 -196 0
196 194 197 0
-197 0
171 198 0
172 198 0
173 198 0
174 198 0
175 198 0
176 198 0
177 198 0
178 198 0
-199 0
198 -200 -201 0
200 -198 -201 0
201 -198 -200 0
200 198 201 0
-201 0
198 -202 -203 0
202 -198 -203 0
203 -198 -202 0
202 198 203 0
-203 0
198 -204 -205 0
204 -198 -205 0
205 -198 -204 0
204 198 205 0
-205 0
198 -206 -207 0
206 -198 -207 0
207 -198 -206 0
206 198 207 0
-207 0
198 -208 -209 0
208 -198 -209 0
209 -198 -208 0
208 198 209 0
-209 0
198 -210 -211 0
210 -198 -211 0
211 -198 -210 0
210 198 211 0
-211 0
198 -212 -213 0
212 -198 -213 0
213 -198 -212 0
212 198 213 0
-213 0
198 -214 -215 0
214 -198 -215 0
215 -198 -214 0
214 198 215 0
-215 0
216 217 0
218 217 0
219 217 0
220 217 0
221 217 0
222 217 0
223 217 0
224 217 0
225 217 0
226 217 0
227 217 0
228 217 0
229 217 0
230 217 0
-231 0
-232 217 -233 0
232 -217 -233 0
233 -217 -232 0
232 217 233 0
-233 0
218 234 0
219 234 0
220 234 0
221 234 0
222 234 0
223 234 0
224 234 0
225 234 0
226 234 0
227 234 0
228 234 0
229 234 0
230 234 0
-235 0
234 -236 -237 0
236 -234 -237 0
237 -234 -236 0
236 234 237 0
-237 0
219 238 0
220 238 0
221 238 0
222 238 0
223 238 0
224 238 0
225 238 0
226 238 0
227 238 0
228 238 0
229 238 0
230 238 0
-239 0
238 -240 -241 0
240 -238 -241 0
241 -238 -240 0
240 238 241 0
-241 0
220 242 0
221 242 0
222 242 0
223 242 0
224 242 0
225 242 0
226 242 0
227 242 0
228 242 0
229 242 0
230 242 0
-243 0
242 -244 -245 0
244 -242 -245 0
245 -242 -244 0
244 242 245 0
-245 0
221 246 0
222 246 0
223 246 0
224 246 0
225 246 0
226 246 0
227 246 0
228 246 0
229 246 0
230 246 0
-247 0
246 -248 -249 0
248 -246 -249 0
249 -246 -248 0
248 246 249 0
-249 0
222 250 0
223 250 0
224 250 0
225 250 0
226 250 0
227 250 0
228 250 0
229 250 0
230 250 0
-251 0
250 -252 -253 0
252 -250 -253 0
253 -250 -252 0
252 250 253 0
-253 0
223 254 0
224 254 0
225 254 0
226 254 0
227 254 0
228 254 0
229 254 0
230 254 0
-255 0
254 -256 -257 0
256 -254 -257 0
257 -254 -256 0
256 254 257 0
-257 0
254 -258 -259 0
258 -254 -259 0
259 -254 -258 0
258 254 259 0
-259 0
254 -260 -261 0
260 -254 -261 0
261 -254 -260 0
260 254 261 0
-261 0
254 -262 -263 0
262 -254 -263 0
263 -254 -262 0
262 254 263 0
-263 0
254 -264 -265 0
264 -254 -265 0
265 -254 -264 0
264 254 265 0
-265 0
254 -266 -267 0
266 -254 -267 0
267 -254 -266 0
266 254 267 0
-267 0
254 -268 -269 0
268 -254 -269 0
269 -254 -268 0
268 254 269 0
-269 0
254 -270 -271 0
270 -254 -271 0
271 -254 -270 0
270 254 271 0
-271 0
272 273 0
274 273 0
275 273 0
276 273 0
277 273 0
278 273 0
279 273 0
280 273 0
281 273 0
282 273 0
283 273 0
284 273 0
285 273 0
286 273 0
-287 0
-288 273 -289 0
288 -273 -289 0
289 -273 -288 0
288 273 289 0
-289 0
274 290 0
275 290 0
276 290 0
277 290 0
278 290 0
279 290 0
280 290 0
281 290 0
282 290 0
283 290 0
284 290 0
285 290 0
286 290 0
-291 0
290 -292 -293 0
292 -290 -293 0
293 -290 -292 0
292 290 293 0
-293 0
275 294 0
276 294 0
277 294 0
278 294 0
279 294 0
280 294 0
281 294 0
282 294 0
283 294 0
284 294 0
285 294 0
286 294 0
-295 0
294 -296 -297 0
296 -294 -297 0
297 -294 -296 0
296 294 297 0
-297 0
276 298 0
277 298 0
278 298 0
279 298 0
280 298 0
281 298 0
282 298 0
283 298 0
284 298 0
285 298 0
286 298 0
-299 0
298 -300 -301 0
300 -298 -301 0
301 -298 -300 0
300 298 301 0
-301 0
277 302 0
278 302 0
279 302 0
280 302 0
281 302 0
282 302 0
283 302 0
284 302 0
285 302 0
286 302 0
-303 0
302 -304 -305 0
304 -302 -305 0
305 -302 -304 0
304 302 305 0
-305 0
278 306 0
279 306 0
280 306 0
281 306 0
282 306 0
283 306 0
284 306 0
285 306 0
286 306 0
-307 0
306 -308 -309 0
308 -306 -309 0
309 -306 -308 0
308 306 309 0
-309 0
279 310 0
280 310 0
281 310 0
282 310 0
283 310 0
284 310 0
285 310 0
286 310 0
-311 0
310 -312 -313 0
312 -310 -313 0
313 -310 -312 0
312 310 313 0
-313 0
310 -314 -315 0
314 -310 -315 0
315 -310 -314 0
314 310 315 0
-315 0
310 -316 -317 0
316 -310 -317 0
317 -310 -316 0
316 310 317 0
-317 0
310 -318 -319 0
318 -310 -319 0
319 -310 -318 0
318 310 319 0
-319 0
310 -320 -321 0
320 -310 -321 0
321 -310 -320 0
320 310 321 0
-321 0
310 -322 -323 0
322 -310 -323 0
323 -310 -322 0
322 310 323 0
-323 0
310 -324 -325 0
324 -310 -325 0
325 -310 -324 0
324 310 325 0
-325 0
310 -326 -327 0
326 -310 -327 0
327 -310 -326 0
326 310 327 0
-327 0
328 329 0
330 329 0
331 329 0
332 329 0
333 329 0
334 329 0
335 329 0
336 329 0
337 329 0
338 329 0
339 329 0
340 329 0
341 329 0
-342 0
-343 329 -344 0
343 -329 -344 0
344 -329 -343 0
343 329 344 0
-344 0
330 345 0
331 345 0
332 345 0
333 345 0
334 345 0
335 345 0
336 345 0
337 345 0
338 345 0
339 345 0
340 345 0
341 345 0
-346 0
345 -347 -348 0
347 -345 -348 0
348 -345 -347 0
347 345 348 0
-348 0
331 349 0
332 349 0
333 349 0
334 349 0
335 349 0
336 349 0
337 349 0
338 349 0
339 349 0
340 349 0
341 349 0
-350 0
349 -351 -352 0
351 -349 -352 0
352 -349 -351 0
351 349 352 0
-352 0
332 353 0
333 353 0
334 353 0
335 353 0
336 353 0
337 353 0
338 353 0
339 353 0
340 353 0
341 353 0
-354 0
353 -355 -356 0
355 -353 -356 0
356 -353 -355 0
355 353 356 0
-356 0
333 357 0
334 357 0
335 357 0
336 357 0
337 357 0
338 357 0
339 357 0
340 357 0
341 357 0
-358 0
357 -359 -360 0
359 -357 -360 0
360 -357 -359 0
359 357 360 0
-360 0
334 361 0
335 361 0
336 361 0
337 361 0
338 361 0
339 361 0
340 361 0
341 361 0
-362 0
361 -363 -364 0
363 -361 -364 0
364 -361 -363 0
363 361 364 0
-364 0
335 365 0
336 365 0
337 365 0
338 365 0
339 365 0
340 365 0
341 365 0
-366 0
365 -367 -368 0
367 -365 -368 0
368 -365 -367 0
367 365 368 0
-368 0
336 369 0
337 369 0
338 369 0
339 369 0
340 369 0
341 369 0
-370 0
369 -371 -372 0
371 -369 -372 0
372 -369 -371 0
371 369 372 0
-372 0
369 -373 -374 0
373 -369 -374 0
374 -369 -373 0
373 369 374 0
-374 0
369 -375 -376 0
375 -369 -376 0
376 -369 -375 0
375 369 376 0
-376 0
369 -377 -378 0
377 -369 -378 0
378 -369 -377 0
377 369 378 0
-378 0
369 -379 -380 0
379 -369 -380 0
380 -369 -379 0
379 369 380 0
-380 0
369 -381 -382 0
381 -369 -382 0
382 -369 -381 0
381 369 382 0
-382 0
383 384 0
385 384 0
386 384 0
387 384 0
388 384 0
389 384 0
390 384 0
391 384 0
392 384 0
393 384 0
394 384 0
395 384 0
396 384 0
397 384 0
398 384 0
-399 0
-400 384 -401 0
400 -384 -401 0
401 -384 -400 0
400 384 401 0
-401 0
385 402 0
386 402 0
387 402 0
388 402 0
389 402 0
390 402 0
391 402 0
392 402 0
393 402 0
394 402 0
395 402 0
396 402 0
397 402 0
398 402 0
-403 0
402 -404 -405 0
404 -402 -405 0
405 -402 -404 0
404 402 405 0
-405 0
386 406 0
387 406 0
388 406 0
389 406 0
390 406 0
391 406 0
392 406 0
393 406 0
394 406 0
395 406 0
396 406 0
397 406 0
398 406 0
-407 0
406 -408 -409 0
408 -406 -409 0
409 -406 -408 0
408 406 409 0
-409 0
387 410 0
388 410 0
389 410 0
390 410 0
391 410 0
392 410 0
393 410 0
394 410 0
395 410 0
396 410 0
397 410 0
398 410 0
-411 0
410 -412 -413 0
412 -410 -413 0
413 -410 -412 0
412 410 413 0
-413 0
388 414 0
389 414 0
390 414 0
391 414 0
392 414 0
393 414 0
394 414 0
395 414 0
396 414 0
397 414 0
398 414 0
-415 0
414 -416 -417 0
416 -414 -417 0
417 -414 -416 0
416 414 417 0
-417 0
389 418 0
390 418 0
391 418 0
392 418 0
393 418 0
394 418 0
395 418 0
396 418 0
397 418 0
398 418 0
-419 0
418 -420 -421 0
420 -418 -421 0
421 -418 -420 0
420 418 421 0
-421 0
390 422 0
391 422 0
392 422 0
393 422 0
394 422 0
395 422 0
396 422 0
397 422 0
398 422 0
-423 0
422 -424 -425 0
424 -422 -425 0
425 -422 -424 0
424 422 425 0
-425 0
391 426 0
392 426 0
393 426 0
394 426 0
395 426 0
396 426 0
397 426 0
398 426 0
-427 0
426 -428 -429 0
428 -426 -429 0
429 -426 -428 0
428 426 429 0
-429 0
426 -430 -431 0
430 -426 -431 0
431 -426 -430 0
430 426 431 0
-431 0
426 -432 -433 0
432 -426 -433 0
433 -426 -432 0
432 426 433 0
-433 0
426 -434 -435 0
434 -426 -435 0
435 -426 -434 0
434 426 435 0
-435 0
426 -436 -437 0
436 -426 -437 0
437 -426 -436 0
436 426 437 0
-437 0
426 -438 -439 0
438 -426 -439 0
439 -426 -438 0
438 426 439 0
-439 0
426 -440 -441 0
440 -426 -441 0
441 -426 -440 0
440 426 441 0
-441 0
426 -442 -443 0
442 -426 -443 0
443 -426 -442 0
442 426 443 0
-443 0
444 445 0
446 445 0
447 445 0
448 445 0
449 445 0
450 445 0
451 445 0
452 445 0
453 445 0
454 445 0
455 445 0
456 445 0
-457 0
-458 445 -459 0
458 -445 -459 0
459 -445 -458 0
458 445 459 0
-459 0
446 460 0
447 460 0
448 460 0
449 460 0
450 460 0
451 460 0
452 460 0
453 460 0
454 460 0
455 460 0
456 460 0
-461 0
460 -462 -463 0
462 -460 -463 0
463 -460 -462 0
462 460 463 0
-463 0
447 464 0
448 464 0
449 464 0
450 464 0
451 464 0
452 464 0
453 464 0
454 464 0
455 464 0
456 464 0
-465 0
464 -466 -467 0
466 -464 -467 0
467 -464 -466 0
466 464 467 0
-467 0
448 468 0
449 468 0
450 468 0
451 468 0
452 468 0
453 468 0
454 468 0
455 468 0
456 468 0
-469 0
468 -470 -471 0
470 -468 -471 0
471 -468 -470 0
470 468 471 0
-471 0
449 472 0
450 472 0
451 472 0
452 472 0
453 472 0
454 472 0
455 472 0
456 472 0
-473 0
472 -474 -475 0
474 -472 -475 0
475 -472 -474 0
474 472 475 0
-475 0
450 476 0
451 476 0
452 476 0
453 476 0
454 476 0
455 476 0
456 476 0
-477 0
476 -478 -479 0
478 -476 -479 0
479 -476 -478 0
478 476 479 0
-479 0
451 480 0
452 480 0
453 480 0
454 480 0
455 480 0
456 480 0
-481 0
480 -482 -483 0
482 -480 -483 0
483 -480 -482 0
482 480 483 0
-483 0
480 -484 -485 0
484 -480 -485 0
485 -480 -484 0
484 480 485 0
-485 0
480 -486 -487 0
486 -480 -487 0
487 -480 -486 0
486 480 487 0
-487 0
480 -488 -489 0
488 -480 -489 0
489 -480 -488 0
488 480 489 0
-489 0
480 -490 -491 0
490 -480 -491 0
491 -480 -490 0
490 480 491 0
-491 0
480 -492 -493 0
492 -480 -493 0
493 -480 -492 0
492 480 493 0
-493 0
494 495 0
496 495 0
497 495 0
498 495 0
499 495 0
500 495 0
501 495 0
502 495 0
503 495 0
504 495 0
505 495 0
506 495 0
507 495 0
508 495 0
509 495 0
-510 0
-511 495 -512 0
511 -495 -512 0
512 -495 -511 0
511 495 512 0
-512 0
496 513 0
497 513 0
498 513 0
499 513 0
500 513 0
501 513 0
502 513 0
503 513 0
504 513 0
505 513 0
506 513 0
507 513 0
508 513 0
509 513 0
-514 0
513 -515 -516 0
515 -513 -516 0
516 -513 -515 0
515 513 516 0
-516 0
497 517 0
498 517 0
499 517 0
500 517 0
501 517 0
502 517 0
503 517 0
504 517 0
505 517 0
506 517 0
507 517 0
508 517 0
509 517 0
-518 0
517 -519 -520 0
519 -517 -520 0
520 -517 -519 0
519 517 520 0
-520 0
498 521 0
499 521 0
500 521 0
501 521 0
502 521 0
503 521 0
504 521 0
505 521 0
506 521 0
507 521 0
508 521 0
509 521 0
-522 0
521 -523 -524 0
523 -521 -524 0
524 -521 -523 0
523 521 524 0
-524 0
499 525 0
500 525 0
501 525 0
502 525 0
503 525 0
504 525 0
505 525 0
506 525 0
507 525 0
508 525 0
509 525 0
-526 0
525 -527 -528 0
527 -525 -528 0
528 -525 -527 0
527 525 528 0
-528 0
500 529 0
501 529 0
502 529 0
503 529 0
504 529 0
505 529 0
506 529 0
507 529 0
508 529 0
509 529 0
-530 0
529 -531 -532 0
531 -529 -532 0
532 -529 -531 0
531 529 532 0
-532 0
501 533 0
502 533 0
503 533 0
504 533 0
505 533 0
506 533 0
507 533 0
508 533 0
509 533 0
-534 0
533 -535 -536 0
535 -533 -536 0
536 -533 -535 0
535 533 536 0
-536 0
502 537 0
503 537 0
504 537 0
505 537 0
506 537 0
507 537 0
508 537 0
509 537 0
-538 0
537 -539 -540 0
539 -537 -540 0
540 -537 -539 0
539 537 540 0
-540 0
537 -541 -542 0
541 -537 -542 0
542 -537 -541 0
541 537 542 0
-542 0
537 -543 -544 0
543 -537 -544 0
544 -537 -543 0
543 537 544 0
-544 0
537 -545 -546 0
545 -537 -546 0
546 -537 -545 0
545 537 546 0
-546 0
537 -547 -548 0
547 -537 -548 0
548 -537 -547 0
547 537 548 0
-548 0
537 -549 -550 0
549 -537 -550 0
550 -537 -549 0
549 537 550 0
-550 0
537 -551 -552 0
551 -537 -552 0
552 -537 -551 0
551 537 552 0
-552 0
537 -553 -554 0
553 -537 -554 0
554 -537 -553 0
553 537 554 0
-554 0
1 0
3 0
5 0
7 0
9 0
11 0
13 0
15 0
17 0
19 0
-35 0
-83 0
-133 0
-180 0
-232 0
-288 0
-343 0
-400 0
-458 0
-511 0
2 -4 0
4 -2 0
2 -6 0
6 -2 0
2 -8 0
8 -2 0
2 -10 0
10 -2 0
2 -12 0
12 -2 0
2 -14 0
14 -2 0
2 -16 0
16 -2 0
2 -18 0
18 -2 0
2 -20 0
20 -2 0
4 -6 0
6 -4 0
4 -8 0
8 -4 0
4 -10 0
10 -4 0
4 -12 0
12 -4 0
4 -14 0
14 -4 0
4 -16 0
16 -4 0
4 -18 0
18 -4 0
4 -20 0
20 -4 0
6 -8 0
8 -6 0
6 -10 0
10 -6 0
6 -12 0
12 -6 0
6 -14 0
14 -6 0
6 -16 0
16 -6 0
6 -18 0
18 -6 0
6 -20 0
20 -6 0
8 -10 0
10 -8 0
8 -12 0
12 -8 0
8 -14 0
14 -8 0
8 -16 0
16 -8 0
8 -18 0
18 -8 0
8 -20 0
20 -8 0
10 -12 0
12 -10 0
10 -14 0
14 -10 0
10 -16 0
16 -10 0
10 -18 0
18 -10 0
10 -20 0
20 -10 0
12 -14 0
14 -12 0
12 -16 0
16 -12 0
12 -18 0
18 -12 0
12 -20 0
20 -12 0
14 -16 0
16 -14 0
14 -18 0
18 -14 0
14 -20 0
20 -14 0
16 -18 0
18 -16 0
16 -20 0
20 -16 0
18 -20 0
20 -18 0
124 -228 0
228 -124 0
125 -229 0
229 -125 0
126 -230 0
230 -126 0
127 -223 0
223 -127 0
128 -224 0
224 -128 0
129 -225 0
225 -129 0
130 -226 0
226 -130 0
131 -227 0
227 -131 0
336 -454 0
454 -336 0
337 -455 0
455 -337 0
338 -456 0
456 -338 0
339 -451 0
451 -339 0
340 -452 0
452 -340 0
341 -453 0
453 -341 0
